(define-fun randomness-mapping-Run
    ((base-ctr-0 Int) (base-ctr-1 Int)
     (id-0 SampleId) (id-1 SampleId)
     (scr-0 Int) (scr-1 Int))
  Bool
  false)


(define-fun invariant
    ((left-game <GameState_X>)
     (right-game <GameState_Y>))
  Bool
  true)
